nP = 4;
nT = 20;
nC1 = 33;
nC2 = 44;
nA = 167;
nD = 3;

arc_from = [4, 3, 1, 2, 1, 3, 1, 3, 2, 1, 3, 2, 3, 2, 2, 4, 4, 3, 1, 4, 3, 3, 2, 4, 4, 1, 4, 2, 3, 5, 6, 7, 7, 7, 8, 8, 8, 9, 9, 9, 10, 10, 11, 11, 12, 12, 13, 14, 15, 15, 15, 16, 16, 17, 17, 18, 18, 18, 19, 19, 19, 20, 20, 21, 21, 21, 22, 22, 23, 23, 24, 24, 49, 51, 33, 49, 52, 36, 56, 36, 35, 56, 43, 33, 36, 45, 53, 28, 47, 25, 56, 33, 37, 49, 57, 56, 51, 56, 51, 53, 56, 35, 30, 26, 39, 43, 27, 42, 39, 43, 35, 54, 56, 57, 32, 32, 25, 25, 26, 27, 28, 29, 30, 31, 31, 32, 32, 33, 34, 34, 35, 35, 36, 37, 38, 38, 39, 40, 40, 41, 41, 42, 43, 43, 44, 45, 46, 46, 47, 47, 48, 48, 49, 49, 50, 51, 51, 52, 52, 53, 54, 54, 55, 55, 56, 56, 57];
arc_to = [5, 5, 6, 6, 7, 8, 9, 10, 10, 11, 12, 13, 14, 14, 15, 15, 16, 17, 18, 18, 19, 20, 20, 21, 22, 22, 23, 23, 24, 32, 46, 31, 35, 40, 36, 35, 46, 52, 54, 39, 36, 52, 26, 37, 52, 49, 38, 42, 29, 31, 36, 45, 37, 32, 41, 56, 45, 49, 50, 32, 47, 54, 36, 44, 30, 33, 32, 40, 32, 36, 34, 57, 58, 59, 60, 61, 62, 63, 64, 65, 66, 67, 68, 69, 70, 71, 72, 73, 74, 75, 76, 77, 78, 79, 80, 81, 82, 83, 84, 85, 86, 87, 88, 89, 90, 91, 92, 93, 94, 95, 96, 97, 98, 99, 100, 101, 92, 81, 86, 85, 99, 77, 86, 80, 63, 65, 73, 95, 97, 98, 68, 97, 71, 61, 92, 75, 78, 76, 94, 90, 101, 66, 61, 75, 66, 67, 73, 101, 89, 67, 98, 84, 86, 62, 83, 81, 87, 78, 95, 63, 98, 100, 62, 92, 71, 85, 89];

supply = [1320.05, 1320.05, 1320.05, 1320.05, 0.00, 0.00, 0.00, 0.00, 0.00, 0.00, 0.00, 0.00, 0.00, 0.00, 0.00, 0.00, 0.00, 0.00, 0.00, 0.00, 0.00, 0.00, 0.00, 0.00, 0.00, 0.00, 0.00, 0.00, 0.00, 0.00, 0.00, 0.00, 0.00, 0.00, 0.00, 0.00, 0.00, 0.00, 0.00, 0.00, 0.00, 0.00, 0.00, 0.00, 0.00, 0.00, 0.00, 0.00, 0.00, 0.00, 0.00, 0.00, 0.00, 0.00, 0.00, 0.00, 0.00, 0.00, 0.00, 0.00, 0.00, 0.00, 0.00, 0.00, 0.00, 0.00, 0.00, 0.00, 0.00, 0.00, 0.00, 0.00, 0.00, 0.00, 0.00, 0.00, 0.00, 0.00, 0.00, 0.00, 0.00, 0.00, 0.00, 0.00, 0.00, 0.00, 0.00, 0.00, 0.00, 0.00, 0.00, 0.00, 0.00, 0.00, 0.00, 0.00, 0.00, 0.00, 0.00, 0.00, 0.00];
demand = [0.00, 0.00, 0.00, 0.00, 0.00, 0.00, 0.00, 0.00, 0.00, 0.00, 0.00, 0.00, 0.00, 0.00, 0.00, 0.00, 0.00, 0.00, 0.00, 0.00, 0.00, 0.00, 0.00, 0.00, 46.51, 38.94, 38.68, 47.28, 48.07, 51.54, 53.01, 37.25, 44.68, 51.45, 50.44, 47.38, 55.40, 41.52, 46.67, 49.71, 40.16, 42.00, 41.99, 39.73, 40.12, 42.13, 42.57, 51.51, 43.71, 54.50, 50.37, 46.20, 48.44, 45.50, 39.53, 37.15, 44.35, 54.89, 66.02, 56.29, 56.06, 65.13, 61.15, 59.84, 53.06, 60.05, 62.17, 57.18, 50.23, 55.32, 53.49, 63.08, 60.73, 68.45, 64.17, 53.65, 52.60, 64.26, 54.55, 67.63, 50.74, 69.13, 50.28, 63.84, 46.75, 62.91, 67.88, 50.97, 64.53, 65.31, 47.73, 65.69, 64.47, 61.65, 49.34, 53.12, 51.96, 49.69, 55.89, 54.83, 56.49];

max_capacity = [795, 1414, 3181];

install_cost = array2d(1..nA, 1..nD, [
  20, 24, 32,
  50, 62, 78,
  20, 24, 32,
  50, 62, 78,
  20, 24, 32,
  50, 62, 78,
  20, 24, 32,
  50, 62, 78,
  20, 24, 32,
  50, 62, 78,
  20, 24, 32,
  50, 62, 78,
  20, 24, 32,
  50, 62, 78,
  20, 24, 32,
  50, 62, 78,
  20, 24, 32,
  50, 62, 78,
  20, 24, 32,
  50, 62, 78,
  20, 24, 32,
  50, 62, 78,
  20, 24, 32,
  50, 62, 78,
  20, 24, 32,
  50, 62, 78,
  20, 24, 32,
  50, 62, 78,
  20, 24, 32,
  50, 62, 78,
  20, 24, 32,
  50, 62, 78,
  20, 24, 32,
  50, 62, 78,
  20, 24, 32,
  50, 62, 78,
  20, 24, 32,
  50, 62, 78,
  20, 24, 32,
  50, 62, 78,
  20, 24, 32,
  50, 62, 78,
  20, 24, 32,
  50, 62, 78,
  20, 24, 32,
  50, 62, 78,
  20, 24, 32,
  50, 62, 78,
  20, 24, 32,
  50, 62, 78,
  20, 24, 32,
  50, 62, 78,
  20, 24, 32,
  50, 62, 78,
  20, 24, 32,
  50, 62, 78,
  20, 24, 32,
  50, 62, 78,
  20, 24, 32,
  50, 62, 78,
  20, 24, 32,
  50, 62, 78,
  20, 24, 32,
  50, 62, 78,
  20, 24, 32,
  50, 62, 78,
  20, 24, 32,
  50, 62, 78,
  20, 24, 32,
  50, 62, 78,
  20, 24, 32,
  50, 62, 78,
  20, 24, 32,
  50, 62, 78,
  20, 24, 32,
  50, 62, 78,
  20, 24, 32,
  50, 62, 78,
  20, 24, 32,
  50, 62, 78,
  20, 24, 32,
  50, 62, 78,
  20, 24, 32,
  50, 62, 78,
  20, 24, 32,
  50, 62, 78,
  20, 24, 32,
  50, 62, 78,
  20, 24, 32,
  50, 62, 78,
  20, 24, 32,
  50, 62, 78,
  20, 24, 32,
  50, 62, 78,
  20, 24, 32,
  50, 62, 78,
  20, 24, 32,
  50, 62, 78,
  20, 24, 32,
  50, 62, 78,
  20, 24, 32,
  50, 62, 78,
  20, 24, 32,
  50, 62, 78,
  20, 24, 32,
  50, 62, 78,
  20, 24, 32,
  50, 62, 78,
  20, 24, 32,
  50, 62, 78,
  20, 24, 32,
  50, 62, 78,
  20, 24, 32,
  50, 62, 78,
  20, 24, 32,
  50, 62, 78,
  20, 24, 32,
  50, 62, 78,
  20, 24, 32,
  50, 62, 78,
  20, 24, 32,
  50, 62, 78,
  20, 24, 32,
  50, 62, 78,
  20, 24, 32,
  50, 62, 78,
  20, 24, 32,
  50, 62, 78,
  20, 24, 32,
  50, 62, 78,
  20, 24, 32,
  50, 62, 78,
  20, 24, 32,
  50, 62, 78,
  20, 24, 32,
  50, 62, 78,
  20, 24, 32,
  50, 62, 78,
  20, 24, 32,
  50, 62, 78,
  20, 24, 32,
  50, 62, 78,
  20, 24, 32,
  50, 62, 78,
  20, 24, 32,
  50, 62, 78,
  20, 24, 32,
  50, 62, 78,
  20, 24, 32,
  50, 62, 78,
  20, 24, 32,
  50, 62, 78,
  20, 24, 32,
  50, 62, 78,
  20, 24, 32,
  50, 62, 78,
  20, 24, 32,
  50, 62, 78,
  20, 24, 32,
  50, 62, 78,
  20, 24, 32,
  50, 62, 78,
  20, 24, 32,
  50, 62, 78,
  20, 24, 32,
  50, 62, 78,
  20, 24, 32
]);

trans_cost = [4.40, 5.54, 5.09, 5.72, 6.08, 6.79, 5.89, 6.73, 6.10, 3.04, 4.59, 5.78, 4.19, 6.90, 8.30, 7.83, 5.68, 8.24, 6.22, 5.49, 5.08, 5.55, 5.42, 6.26, 6.24, 6.00, 6.66, 7.79, 7.42, 3.77, 2.17, 7.40, 3.95, 5.66, 4.24, 3.30, 6.81, 7.14, 5.14, 2.11, 5.18, 6.59, 3.78, 6.28, 5.98, 6.87, 6.18, 4.54, 7.79, 5.76, 5.96, 4.60, 5.34, 4.67, 5.74, 8.57, 3.94, 3.58, 8.21, 5.69, 5.00, 7.56, 5.09, 8.74, 7.02, 5.27, 9.24, 5.09, 7.11, 6.45, 7.95, 8.34, 6.05, 4.87, 6.69, 4.98, 9.02, 6.20, 5.45, 6.28, 3.98, 4.54, 7.80, 5.01, 4.43, 6.80, 7.78, 7.08, 7.49, 4.86, 3.87, 8.25, 5.52, 5.62, 7.99, 6.83, 6.68, 9.25, 5.03, 7.39, 6.09, 6.40, 8.29, 6.76, 6.81, 7.61, 5.45, 4.74, 4.43, 3.05, 9.08, 4.35, 5.67, 5.58, 6.46, 7.22, 7.29, 5.13, 5.75, 6.42, 5.63, 8.41, 6.74, 7.10, 6.99, 7.76, 6.27, 4.05, 6.60, 5.02, 5.21, 6.88, 7.86, 6.03, 6.46, 8.55, 6.36, 9.90, 6.85, 3.36, 7.13, 6.57, 7.93, 7.01, 5.79, 4.16, 5.69, 4.72, 5.13, 6.88, 8.50, 6.59, 4.21, 6.67, 7.79, 5.09, 5.80, 6.02, 4.82, 6.97, 5.82, 6.63, 4.67, 5.34, 7.08, 5.44, 8.59];

% Metadata: {'tamaño': 'grandes', 'numero': 5, 'grupo': 5, 'demanda_total': 4061.69, 'suministro_total': 5280.2, 'factor_holgura': 1.3, 'num_arcos': 167, 'conectividad': {'plantas_tanques': 29, 'tanques_transbordo': 43, 'transbordo_finales': 95}}
% Total supply: 5280.20
% Total demand: 4061.69
% Balance factor: 1.30
